<?xml version="1.0" encoding="UTF-8"?><osil xmlns="os.optimizationservices.org"   xmlns:xsi="http://www.w3.org/2001/XMLSchema-instance" xsi:schemaLocation="os.optimizationservices.org http://www.optimizationservices.org/schemas/2.0/OSiL.xsd" ><instanceHeader><name>q_20_10_25_3</name></instanceHeader><instanceData><variables numberOfVariables="20"><var name="x1" ub="1"/><var name="x2" ub="1"/><var name="x3" ub="1"/><var name="x4" ub="1"/><var name="x5" ub="1"/><var name="x6" ub="1"/><var name="x7" ub="1"/><var name="x8" ub="1"/><var name="x9" ub="1"/><var name="x10" ub="1"/><var name="x11" ub="1"/><var name="x12" ub="1"/><var name="x13" ub="1"/><var name="x14" ub="1"/><var name="x15" ub="1"/><var name="x16" ub="1"/><var name="x17" ub="1"/><var name="x18" ub="1"/><var name="x19" ub="1"/><var name="x20" ub="1"/></variables><objectives numberOfObjectives="1"><obj maxOrMin="min" name="defObj_x21" numberOfObjCoef="20"><coef idx="0">.3447</coef><coef idx="1">-.5165</coef><coef idx="2">.8204</coef><coef idx="3">-4.19e-2</coef><coef idx="4">.7291</coef><coef idx="5">.1793</coef><coef idx="6">-.2906</coef><coef idx="7">-.4859</coef><coef idx="8">.7745</coef><coef idx="9">.5955</coef><coef idx="10">-.5433</coef><coef idx="11">9.63e-2</coef><coef idx="12">.9131</coef><coef idx="13">-.9212</coef><coef idx="14">-.5989</coef><coef idx="15">.3632</coef><coef idx="16">.7655</coef><coef idx="17">-.2558</coef><coef idx="18">-.3053</coef><coef idx="19">.1917</coef></obj></objectives><constraints numberOfConstraints="10"><con name="e2" ub="2.891"/><con name="e3" ub="38.713"/><con name="e4" ub="62.798"/><con name="e5" ub="68.216"/><con name="e6" ub="8.052"/><con name="e7" ub="44.024"/><con name="e8" ub="95.647"/><con name="e9" ub="46.979"/><con name="e10" ub="39.816"/><con name="e11" ub="40.785"/></constraints><linearConstraintCoefficients numberOfValues="200"><start><el mult="11" incr="20">0</el></start><colIdx><el mult="20" incr="1">0</el><el mult="20" incr="1">0</el><el mult="20" incr="1">0</el><el mult="20" incr="1">0</el><el mult="20" incr="1">0</el><el mult="20" incr="1">0</el><el mult="20" incr="1">0</el><el mult="20" incr="1">0</el><el mult="20" incr="1">0</el><el mult="20" incr="1">0</el></colIdx><value><el>.1632</el><el>.8656</el><el>.1611</el><el>.3543</el><el>.9647</el><el>.9587</el><el>-6.66e-2</el><el>.4269</el><el>-.9024</el><el>.6766</el><el>.5873</el><el>7.72e-2</el><el>-7.31e-2</el><el>-.2137</el><el>-.7503</el><el>-.3695</el><el>.8727</el><el>-.2959</el><el>-.7141</el><el>-.7346</el><el>-.4558</el><el>-.6481</el><el>-.7218</el><el>-.7735</el><el>.5381</el><el>.9237</el><el>8.8e-2</el><el>-.1725</el><el>-.7814</el><el>-.2254</el><el>.3023</el><el>-.9957</el><el>.8797</el><el>.3441</el><el>-.6929</el><el>-.6938</el><el>.5092</el><el>.5327</el><el>.9047</el><el>.5129</el><el>-.2493</el><el>.5373</el><el>.7918</el><el>.8969</el><el>-.8554</el><el>.4564</el><el>-.6794</el><el>-.2583</el><el>6.57e-2</el><el>.5094</el><el>-.1373</el><el>.1699</el><el>6.e-3</el><el>-.3309</el><el>.653</el><el>-.2004</el><el>.5956</el><el>-.3572</el><el>-7.27e-2</el><el>.3593</el><el>.9293</el><el>-.6776</el><el>-.8715</el><el>-.2535</el><el>.2768</el><el>-.2311</el><el>.3271</el><el>-.4892</el><el>.4076</el><el>.5567</el><el>.4763</el><el>-.4468</el><el>-.8031</el><el>-.6015</el><el>-.512</el><el>-.3397</el><el>6.76e-2</el><el>9.97e-2</el><el>-.6051</el><el>.4815</el><el>-2.65e-2</el><el>-.4171</el><el>.508</el><el>.3584</el><el>.7849</el><el>-.5624</el><el>-.6201</el><el>.5614</el><el>-.8259</el><el>.4341</el><el>-.367</el><el>-.148</el><el>-.3364</el><el>-.5221</el><el>.6808</el><el>.5431</el><el>.4402</el><el>-.6268</el><el>.1851</el><el>.5158</el><el>-.6012</el><el>.4247</el><el>.4644</el><el>.2796</el><el>.559</el><el>.9849</el><el>.8894</el><el>.8323</el><el>-.1287</el><el>.3937</el><el>.7247</el><el>.758</el><el>-.207</el><el>-.3095</el><el>-.5086</el><el>-.3823</el><el>-.2361</el><el>-.9314</el><el>-.8978</el><el>-.6707</el><el>-.3865</el><el>.4258</el><el>-.6689</el><el>-.6511</el><el>-.8375</el><el>.4936</el><el>-.8259</el><el>-.4668</el><el>.8427</el><el>-.6952</el><el>.929</el><el>-.8077</el><el>-3.95e-2</el><el>.8801</el><el>-7.49e-2</el><el>.4775</el><el>.539</el><el>-.7211</el><el>-.1826</el><el>.6841</el><el>.8573</el><el>-.5078</el><el>-7.69e-2</el><el>-.4662</el><el>.9053</el><el>.4227</el><el>.6067</el><el>-.59</el><el>.8208</el><el>.981</el><el>5.7e-2</el><el>-.9077</el><el>.5277</el><el>-.8388</el><el>.3125</el><el>-.1564</el><el>.6889</el><el>-.1729</el><el>-.2015</el><el>.8886</el><el>.5454</el><el>.6439</el><el>.761</el><el>-.4597</el><el>-.3876</el><el>.5233</el><el>.4884</el><el>-.7583</el><el>-.6211</el><el>.1005</el><el>.4067</el><el>.8099</el><el>.5285</el><el>.2924</el><el>.4647</el><el>.2275</el><el>-.1062</el><el>.2242</el><el>-.261</el><el>.8666</el><el>4.62e-2</el><el>.2013</el><el>-.5357</el><el>-.8029</el><el>4.94e-2</el><el>-.5141</el><el>-.3229</el><el>-.643</el><el>.6017</el><el>-.3224</el><el>-8.6e-3</el><el>.2216</el><el>.6702</el><el>-.7825</el><el>.1696</el><el>.6634</el><el>.7842</el><el>-.6106</el><el>-.721</el><el>.5858</el></value></linearConstraintCoefficients><quadraticCoefficients  numberOfQuadraticTerms="572" ><qTerm  idx="-1"  idxOne="0"  idxTwo="19"  coef="-1.8026"/><qTerm  idx="-1"  idxOne="1"  idxTwo="4"  coef="1.6097"/><qTerm  idx="-1"  idxOne="1"  idxTwo="6"  coef="1.8685"/><qTerm  idx="-1"  idxOne="1"  idxTwo="8"  coef="-1.3671"/><qTerm  idx="-1"  idxOne="2"  idxTwo="3"  coef=".8085"/><qTerm  idx="-1"  idxOne="2"  idxTwo="4"  coef="1.1163"/><qTerm  idx="-1"  idxOne="2"  idxTwo="7"  coef="-.7608"/><qTerm  idx="-1"  idxOne="2"  idxTwo="9"  coef="-.2453"/><qTerm  idx="-1"  idxOne="2"  idxTwo="10"  coef="-1.1958"/><qTerm  idx="-1"  idxOne="2"  idxTwo="13"  coef=".29"/><qTerm  idx="-1"  idxOne="2"  idxTwo="16"  coef="-.8838"/><qTerm  idx="-1"  idxOne="2"  idxTwo="18"  coef=".3847"/><qTerm  idx="-1"  idxOne="2"  idxTwo="19"  coef="1.3649"/><qTerm  idx="-1"  idxOne="3"  idxTwo="10"  coef="-1.0384"/><qTerm  idx="-1"  idxOne="3"  idxTwo="13"  coef="1.3901"/><qTerm  idx="-1"  idxOne="3"  idxTwo="16"  coef=".5335"/><qTerm  idx="-1"  idxOne="4"  idxTwo="4"  coef="-1.9917"/><qTerm  idx="-1"  idxOne="4"  idxTwo="5"  coef="-1.7134"/><qTerm  idx="-1"  idxOne="4"  idxTwo="6"  coef=".8271"/><qTerm  idx="-1"  idxOne="4"  idxTwo="12"  coef="-1.4952"/><qTerm  idx="-1"  idxOne="4"  idxTwo="13"  coef="-1.9491"/><qTerm  idx="-1"  idxOne="4"  idxTwo="14"  coef="-.9972"/><qTerm  idx="-1"  idxOne="4"  idxTwo="18"  coef="1.1811"/><qTerm  idx="-1"  idxOne="5"  idxTwo="5"  coef="-2.52e-2"/><qTerm  idx="-1"  idxOne="5"  idxTwo="8"  coef="1.375"/><qTerm  idx="-1"  idxOne="5"  idxTwo="9"  coef="-7.63e-2"/><qTerm  idx="-1"  idxOne="5"  idxTwo="10"  coef="1.9252"/><qTerm  idx="-1"  idxOne="5"  idxTwo="18"  coef="1.2802"/><qTerm  idx="-1"  idxOne="6"  idxTwo="9"  coef="1.0614"/><qTerm  idx="-1"  idxOne="6"  idxTwo="11"  coef=".6539"/><qTerm  idx="-1"  idxOne="6"  idxTwo="12"  coef="-.8865"/><qTerm  idx="-1"  idxOne="6"  idxTwo="13"  coef="1.7118"/><qTerm  idx="-1"  idxOne="7"  idxTwo="12"  coef="-9.46e-2"/><qTerm  idx="-1"  idxOne="7"  idxTwo="16"  coef="-1.8097"/><qTerm  idx="-1"  idxOne="7"  idxTwo="18"  coef="1.8506"/><qTerm  idx="-1"  idxOne="7"  idxTwo="19"  coef="-1.2007"/><qTerm  idx="-1"  idxOne="8"  idxTwo="10"  coef="1.6349"/><qTerm  idx="-1"  idxOne="8"  idxTwo="14"  coef=".7292"/><qTerm  idx="-1"  idxOne="8"  idxTwo="16"  coef="1.3891"/><qTerm  idx="-1"  idxOne="8"  idxTwo="18"  coef="-1.5418"/><qTerm  idx="-1"  idxOne="8"  idxTwo="19"  coef="-8.06e-2"/><qTerm  idx="-1"  idxOne="9"  idxTwo="19"  coef="1.7741"/><qTerm  idx="-1"  idxOne="10"  idxTwo="15"  coef="-1.0338"/><qTerm  idx="-1"  idxOne="10"  idxTwo="16"  coef=".4395"/><qTerm  idx="-1"  idxOne="10"  idxTwo="18"  coef="-1.337"/><qTerm  idx="-1"  idxOne="11"  idxTwo="17"  coef=".5918"/><qTerm  idx="-1"  idxOne="12"  idxTwo="16"  coef="-1.7371"/><qTerm  idx="-1"  idxOne="13"  idxTwo="13"  coef=".5831"/><qTerm  idx="-1"  idxOne="13"  idxTwo="17"  coef=".9149"/><qTerm  idx="-1"  idxOne="14"  idxTwo="16"  coef="-.6105"/><qTerm  idx="-1"  idxOne="17"  idxTwo="18"  coef="-1.1529"/><qTerm  idx="-1"  idxOne="18"  idxTwo="18"  coef="1.1688"/><qTerm  idx="0"  idxOne="0"  idxTwo="18"  coef="1.6917"/><qTerm  idx="0"  idxOne="1"  idxTwo="1"  coef="-1.3391"/><qTerm  idx="0"  idxOne="1"  idxTwo="2"  coef=".2897"/><qTerm  idx="0"  idxOne="1"  idxTwo="6"  coef="-1.5966"/><qTerm  idx="0"  idxOne="1"  idxTwo="10"  coef="-.6584"/><qTerm  idx="0"  idxOne="1"  idxTwo="17"  coef="1.4729"/><qTerm  idx="0"  idxOne="2"  idxTwo="3"  coef="1.158"/><qTerm  idx="0"  idxOne="2"  idxTwo="8"  coef="8.24e-2"/><qTerm  idx="0"  idxOne="2"  idxTwo="9"  coef=".9162"/><qTerm  idx="0"  idxOne="2"  idxTwo="10"  coef="1.8108"/><qTerm  idx="0"  idxOne="2"  idxTwo="15"  coef="-1.1408"/><qTerm  idx="0"  idxOne="3"  idxTwo="4"  coef="-.5203"/><qTerm  idx="0"  idxOne="3"  idxTwo="5"  coef="1.6663"/><qTerm  idx="0"  idxOne="3"  idxTwo="6"  coef="1.5806"/><qTerm  idx="0"  idxOne="3"  idxTwo="11"  coef="-1.9446"/><qTerm  idx="0"  idxOne="3"  idxTwo="12"  coef="-1.8377"/><qTerm  idx="0"  idxOne="3"  idxTwo="16"  coef="1.7937"/><qTerm  idx="0"  idxOne="3"  idxTwo="18"  coef="-.9682"/><qTerm  idx="0"  idxOne="4"  idxTwo="5"  coef="1.4433"/><qTerm  idx="0"  idxOne="4"  idxTwo="7"  coef="-1.4665"/><qTerm  idx="0"  idxOne="5"  idxTwo="7"  coef="1.8219"/><qTerm  idx="0"  idxOne="5"  idxTwo="10"  coef="1.7195"/><qTerm  idx="0"  idxOne="5"  idxTwo="11"  coef="-.8134"/><qTerm  idx="0"  idxOne="5"  idxTwo="13"  coef="-1.4896"/><qTerm  idx="0"  idxOne="5"  idxTwo="17"  coef="-1.4848"/><qTerm  idx="0"  idxOne="6"  idxTwo="14"  coef=".4703"/><qTerm  idx="0"  idxOne="6"  idxTwo="15"  coef=".363"/><qTerm  idx="0"  idxOne="6"  idxTwo="18"  coef="-.8859"/><qTerm  idx="0"  idxOne="7"  idxTwo="8"  coef="1.7399"/><qTerm  idx="0"  idxOne="7"  idxTwo="14"  coef="-1.9994"/><qTerm  idx="0"  idxOne="7"  idxTwo="15"  coef="1.8701"/><qTerm  idx="0"  idxOne="7"  idxTwo="18"  coef="8.46e-2"/><qTerm  idx="0"  idxOne="8"  idxTwo="10"  coef="-1.6868"/><qTerm  idx="0"  idxOne="9"  idxTwo="9"  coef="8.03e-2"/><qTerm  idx="0"  idxOne="9"  idxTwo="10"  coef=".6737"/><qTerm  idx="0"  idxOne="9"  idxTwo="15"  coef="-1.1e-3"/><qTerm  idx="0"  idxOne="10"  idxTwo="11"  coef="1.151"/><qTerm  idx="0"  idxOne="10"  idxTwo="12"  coef="-1.7732"/><qTerm  idx="0"  idxOne="10"  idxTwo="13"  coef=".6043"/><qTerm  idx="0"  idxOne="10"  idxTwo="14"  coef="1.5613"/><qTerm  idx="0"  idxOne="10"  idxTwo="15"  coef="1.7524"/><qTerm  idx="0"  idxOne="11"  idxTwo="12"  coef="1.3238"/><qTerm  idx="0"  idxOne="11"  idxTwo="13"  coef=".1557"/><qTerm  idx="0"  idxOne="12"  idxTwo="13"  coef=".3823"/><qTerm  idx="0"  idxOne="12"  idxTwo="18"  coef=".9823"/><qTerm  idx="0"  idxOne="13"  idxTwo="15"  coef="-.8416"/><qTerm  idx="0"  idxOne="13"  idxTwo="16"  coef="-1.0131"/><qTerm  idx="0"  idxOne="13"  idxTwo="18"  coef="-1.0154"/><qTerm  idx="0"  idxOne="14"  idxTwo="15"  coef="1.976"/><qTerm  idx="0"  idxOne="14"  idxTwo="16"  coef="1.4939"/><qTerm  idx="0"  idxOne="14"  idxTwo="18"  coef=".5981"/><qTerm  idx="0"  idxOne="16"  idxTwo="16"  coef=".4808"/><qTerm  idx="1"  idxOne="0"  idxTwo="1"  coef="-.4652"/><qTerm  idx="1"  idxOne="0"  idxTwo="9"  coef="-1.0121"/><qTerm  idx="1"  idxOne="0"  idxTwo="10"  coef="-1.9772"/><qTerm  idx="1"  idxOne="0"  idxTwo="14"  coef="1.7187"/><qTerm  idx="1"  idxOne="1"  idxTwo="3"  coef=".5958"/><qTerm  idx="1"  idxOne="1"  idxTwo="8"  coef="1.2279"/><qTerm  idx="1"  idxOne="1"  idxTwo="19"  coef="1.4776"/><qTerm  idx="1"  idxOne="2"  idxTwo="3"  coef="1.1874"/><qTerm  idx="1"  idxOne="2"  idxTwo="5"  coef="-.3089"/><qTerm  idx="1"  idxOne="2"  idxTwo="6"  coef=".6349"/><qTerm  idx="1"  idxOne="2"  idxTwo="9"  coef=".1671"/><qTerm  idx="1"  idxOne="2"  idxTwo="13"  coef="1.6667"/><qTerm  idx="1"  idxOne="3"  idxTwo="10"  coef="-1.2727"/><qTerm  idx="1"  idxOne="4"  idxTwo="4"  coef="-.663"/><qTerm  idx="1"  idxOne="4"  idxTwo="7"  coef=".8067"/><qTerm  idx="1"  idxOne="4"  idxTwo="12"  coef=".2556"/><qTerm  idx="1"  idxOne="4"  idxTwo="17"  coef="1.0133"/><qTerm  idx="1"  idxOne="4"  idxTwo="19"  coef="1.0329"/><qTerm  idx="1"  idxOne="5"  idxTwo="6"  coef="1.9473"/><qTerm  idx="1"  idxOne="5"  idxTwo="11"  coef="-.2663"/><qTerm  idx="1"  idxOne="5"  idxTwo="13"  coef="-1.6727"/><qTerm  idx="1"  idxOne="6"  idxTwo="7"  coef="2.59e-2"/><qTerm  idx="1"  idxOne="6"  idxTwo="9"  coef="1.2557"/><qTerm  idx="1"  idxOne="6"  idxTwo="11"  coef="1.3629"/><qTerm  idx="1"  idxOne="6"  idxTwo="17"  coef="-.3557"/><qTerm  idx="1"  idxOne="7"  idxTwo="7"  coef="1.5613"/><qTerm  idx="1"  idxOne="7"  idxTwo="9"  coef=".8232"/><qTerm  idx="1"  idxOne="7"  idxTwo="10"  coef="1.2424"/><qTerm  idx="1"  idxOne="7"  idxTwo="15"  coef="1.5332"/><qTerm  idx="1"  idxOne="7"  idxTwo="16"  coef="1.0074"/><qTerm  idx="1"  idxOne="7"  idxTwo="18"  coef="1.6723"/><qTerm  idx="1"  idxOne="8"  idxTwo="9"  coef="-.6053"/><qTerm  idx="1"  idxOne="8"  idxTwo="11"  coef="1.3256"/><qTerm  idx="1"  idxOne="8"  idxTwo="12"  coef="1.1511"/><qTerm  idx="1"  idxOne="8"  idxTwo="16"  coef=".8851"/><qTerm  idx="1"  idxOne="8"  idxTwo="18"  coef="-1.1411"/><qTerm  idx="1"  idxOne="9"  idxTwo="15"  coef="1.7036"/><qTerm  idx="1"  idxOne="9"  idxTwo="17"  coef=".9354"/><qTerm  idx="1"  idxOne="10"  idxTwo="13"  coef="5.23e-2"/><qTerm  idx="1"  idxOne="10"  idxTwo="14"  coef="-.4672"/><qTerm  idx="1"  idxOne="10"  idxTwo="15"  coef="-1.6733"/><qTerm  idx="1"  idxOne="10"  idxTwo="16"  coef="1.9722"/><qTerm  idx="1"  idxOne="10"  idxTwo="17"  coef=".7544"/><qTerm  idx="1"  idxOne="10"  idxTwo="18"  coef="-1.3676"/><qTerm  idx="1"  idxOne="10"  idxTwo="19"  coef="-1.7737"/><qTerm  idx="1"  idxOne="11"  idxTwo="15"  coef="-1.4413"/><qTerm  idx="1"  idxOne="11"  idxTwo="18"  coef="1.6542"/><qTerm  idx="1"  idxOne="12"  idxTwo="13"  coef=".2455"/><qTerm  idx="1"  idxOne="13"  idxTwo="17"  coef="1.298"/><qTerm  idx="1"  idxOne="14"  idxTwo="16"  coef="1.9893"/><qTerm  idx="1"  idxOne="16"  idxTwo="18"  coef="1.8451"/><qTerm  idx="1"  idxOne="17"  idxTwo="18"  coef="-.438"/><qTerm  idx="2"  idxOne="0"  idxTwo="10"  coef=".6401"/><qTerm  idx="2"  idxOne="0"  idxTwo="17"  coef="1.1896"/><qTerm  idx="2"  idxOne="1"  idxTwo="2"  coef="1.7041"/><qTerm  idx="2"  idxOne="1"  idxTwo="3"  coef="-1.7998"/><qTerm  idx="2"  idxOne="1"  idxTwo="6"  coef="-8.09e-2"/><qTerm  idx="2"  idxOne="1"  idxTwo="12"  coef="-1.3431"/><qTerm  idx="2"  idxOne="1"  idxTwo="13"  coef="-1.9979"/><qTerm  idx="2"  idxOne="1"  idxTwo="14"  coef="1.8404"/><qTerm  idx="2"  idxOne="1"  idxTwo="16"  coef="-1.256"/><qTerm  idx="2"  idxOne="1"  idxTwo="18"  coef="-.8171"/><qTerm  idx="2"  idxOne="1"  idxTwo="19"  coef="-.4388"/><qTerm  idx="2"  idxOne="2"  idxTwo="7"  coef="-1.5024"/><qTerm  idx="2"  idxOne="2"  idxTwo="15"  coef="-7.04e-2"/><qTerm  idx="2"  idxOne="2"  idxTwo="17"  coef=".2327"/><qTerm  idx="2"  idxOne="3"  idxTwo="3"  coef="-6.12e-2"/><qTerm  idx="2"  idxOne="3"  idxTwo="9"  coef="-.1523"/><qTerm  idx="2"  idxOne="3"  idxTwo="18"  coef="-.2923"/><qTerm  idx="2"  idxOne="4"  idxTwo="8"  coef="1.1036"/><qTerm  idx="2"  idxOne="4"  idxTwo="12"  coef="1.8848"/><qTerm  idx="2"  idxOne="4"  idxTwo="17"  coef="1.0081"/><qTerm  idx="2"  idxOne="5"  idxTwo="6"  coef="1.1081"/><qTerm  idx="2"  idxOne="5"  idxTwo="8"  coef="-6.73e-2"/><qTerm  idx="2"  idxOne="5"  idxTwo="9"  coef="-.9734"/><qTerm  idx="2"  idxOne="5"  idxTwo="16"  coef="-.5462"/><qTerm  idx="2"  idxOne="5"  idxTwo="17"  coef="1.853"/><qTerm  idx="2"  idxOne="6"  idxTwo="6"  coef="-.7964"/><qTerm  idx="2"  idxOne="6"  idxTwo="8"  coef="1.6492"/><qTerm  idx="2"  idxOne="6"  idxTwo="12"  coef="1.5631"/><qTerm  idx="2"  idxOne="6"  idxTwo="15"  coef="-1.3574"/><qTerm  idx="2"  idxOne="6"  idxTwo="18"  coef="-1.7897"/><qTerm  idx="2"  idxOne="7"  idxTwo="8"  coef="-1.5391"/><qTerm  idx="2"  idxOne="7"  idxTwo="10"  coef="-1.8209"/><qTerm  idx="2"  idxOne="7"  idxTwo="13"  coef="-.2594"/><qTerm  idx="2"  idxOne="7"  idxTwo="15"  coef="7.85e-2"/><qTerm  idx="2"  idxOne="7"  idxTwo="17"  coef="-1.9685"/><qTerm  idx="2"  idxOne="8"  idxTwo="10"  coef="5.8e-2"/><qTerm  idx="2"  idxOne="8"  idxTwo="14"  coef="1.8719"/><qTerm  idx="2"  idxOne="9"  idxTwo="14"  coef="-1.1684"/><qTerm  idx="2"  idxOne="9"  idxTwo="19"  coef="-.3289"/><qTerm  idx="2"  idxOne="10"  idxTwo="12"  coef="-1.66e-2"/><qTerm  idx="2"  idxOne="10"  idxTwo="16"  coef="-.5238"/><qTerm  idx="2"  idxOne="10"  idxTwo="18"  coef="-.7882"/><qTerm  idx="2"  idxOne="10"  idxTwo="19"  coef="-1.7558"/><qTerm  idx="2"  idxOne="11"  idxTwo="16"  coef=".9415"/><qTerm  idx="2"  idxOne="11"  idxTwo="17"  coef="-1.2784"/><qTerm  idx="2"  idxOne="12"  idxTwo="13"  coef="1.0482"/><qTerm  idx="2"  idxOne="12"  idxTwo="14"  coef=".8244"/><qTerm  idx="2"  idxOne="13"  idxTwo="19"  coef="-1.3804"/><qTerm  idx="2"  idxOne="16"  idxTwo="17"  coef=".7696"/><qTerm  idx="2"  idxOne="16"  idxTwo="18"  coef="1.5933"/><qTerm  idx="2"  idxOne="17"  idxTwo="18"  coef="-.2669"/><qTerm  idx="2"  idxOne="19"  idxTwo="19"  coef="-1.7937"/><qTerm  idx="3"  idxOne="0"  idxTwo="1"  coef=".1669"/><qTerm  idx="3"  idxOne="0"  idxTwo="2"  coef="-1.4728"/><qTerm  idx="3"  idxOne="0"  idxTwo="3"  coef="1.2974"/><qTerm  idx="3"  idxOne="0"  idxTwo="13"  coef="-.9059"/><qTerm  idx="3"  idxOne="1"  idxTwo="9"  coef=".9888"/><qTerm  idx="3"  idxOne="1"  idxTwo="10"  coef="-1.3282"/><qTerm  idx="3"  idxOne="1"  idxTwo="11"  coef="1.8798"/><qTerm  idx="3"  idxOne="1"  idxTwo="12"  coef="1.8947"/><qTerm  idx="3"  idxOne="1"  idxTwo="16"  coef="1.9689"/><qTerm  idx="3"  idxOne="2"  idxTwo="9"  coef="1.6824"/><qTerm  idx="3"  idxOne="2"  idxTwo="10"  coef=".5404"/><qTerm  idx="3"  idxOne="2"  idxTwo="12"  coef="1.7183"/><qTerm  idx="3"  idxOne="3"  idxTwo="4"  coef="-1.9263"/><qTerm  idx="3"  idxOne="3"  idxTwo="7"  coef="-1.1548"/><qTerm  idx="3"  idxOne="3"  idxTwo="10"  coef="1.7567"/><qTerm  idx="3"  idxOne="3"  idxTwo="13"  coef="-1.9706"/><qTerm  idx="3"  idxOne="3"  idxTwo="16"  coef="-1.5376"/><qTerm  idx="3"  idxOne="3"  idxTwo="17"  coef=".1787"/><qTerm  idx="3"  idxOne="4"  idxTwo="8"  coef="1.5934"/><qTerm  idx="3"  idxOne="4"  idxTwo="15"  coef=".5168"/><qTerm  idx="3"  idxOne="4"  idxTwo="16"  coef="-.3226"/><qTerm  idx="3"  idxOne="5"  idxTwo="6"  coef="-.5449"/><qTerm  idx="3"  idxOne="5"  idxTwo="12"  coef="-.2408"/><qTerm  idx="3"  idxOne="5"  idxTwo="13"  coef="-1.4471"/><qTerm  idx="3"  idxOne="5"  idxTwo="15"  coef="1.578"/><qTerm  idx="3"  idxOne="5"  idxTwo="16"  coef="-1.5725"/><qTerm  idx="3"  idxOne="6"  idxTwo="7"  coef="1.3137"/><qTerm  idx="3"  idxOne="6"  idxTwo="11"  coef="1.4031"/><qTerm  idx="3"  idxOne="6"  idxTwo="15"  coef="1.235"/><qTerm  idx="3"  idxOne="6"  idxTwo="16"  coef="-.8011"/><qTerm  idx="3"  idxOne="6"  idxTwo="18"  coef="1.6024"/><qTerm  idx="3"  idxOne="7"  idxTwo="9"  coef="-.9735"/><qTerm  idx="3"  idxOne="7"  idxTwo="11"  coef="-1.8339"/><qTerm  idx="3"  idxOne="7"  idxTwo="14"  coef="-.5508"/><qTerm  idx="3"  idxOne="7"  idxTwo="18"  coef=".732"/><qTerm  idx="3"  idxOne="8"  idxTwo="10"  coef=".1054"/><qTerm  idx="3"  idxOne="8"  idxTwo="12"  coef="-1.8471"/><qTerm  idx="3"  idxOne="8"  idxTwo="16"  coef="-.7984"/><qTerm  idx="3"  idxOne="8"  idxTwo="18"  coef=".3018"/><qTerm  idx="3"  idxOne="9"  idxTwo="16"  coef="2.19e-2"/><qTerm  idx="3"  idxOne="10"  idxTwo="13"  coef="1.781"/><qTerm  idx="3"  idxOne="10"  idxTwo="15"  coef="-.9607"/><qTerm  idx="3"  idxOne="10"  idxTwo="19"  coef="-5.02e-2"/><qTerm  idx="3"  idxOne="11"  idxTwo="16"  coef="1.1411"/><qTerm  idx="3"  idxOne="12"  idxTwo="12"  coef="-1.1315"/><qTerm  idx="3"  idxOne="13"  idxTwo="16"  coef=".1699"/><qTerm  idx="3"  idxOne="13"  idxTwo="17"  coef="1.2428"/><qTerm  idx="3"  idxOne="13"  idxTwo="19"  coef=".9012"/><qTerm  idx="3"  idxOne="14"  idxTwo="17"  coef="-1.6663"/><qTerm  idx="3"  idxOne="16"  idxTwo="19"  coef="-1.8728"/><qTerm  idx="3"  idxOne="17"  idxTwo="19"  coef="-1.6443"/><qTerm  idx="3"  idxOne="18"  idxTwo="18"  coef="-1.8917"/><qTerm  idx="4"  idxOne="0"  idxTwo="7"  coef="-.395"/><qTerm  idx="4"  idxOne="0"  idxTwo="12"  coef="1.3914"/><qTerm  idx="4"  idxOne="1"  idxTwo="4"  coef=".9385"/><qTerm  idx="4"  idxOne="1"  idxTwo="5"  coef=".1288"/><qTerm  idx="4"  idxOne="1"  idxTwo="6"  coef=".5351"/><qTerm  idx="4"  idxOne="1"  idxTwo="12"  coef="-1.8621"/><qTerm  idx="4"  idxOne="2"  idxTwo="5"  coef="1.7787"/><qTerm  idx="4"  idxOne="2"  idxTwo="6"  coef="1.9283"/><qTerm  idx="4"  idxOne="2"  idxTwo="9"  coef=".9967"/><qTerm  idx="4"  idxOne="2"  idxTwo="11"  coef="-9.69e-2"/><qTerm  idx="4"  idxOne="2"  idxTwo="14"  coef="-1.0036"/><qTerm  idx="4"  idxOne="3"  idxTwo="5"  coef="1.2676"/><qTerm  idx="4"  idxOne="3"  idxTwo="10"  coef=".5424"/><qTerm  idx="4"  idxOne="3"  idxTwo="15"  coef="-1.6626"/><qTerm  idx="4"  idxOne="3"  idxTwo="16"  coef=".3999"/><qTerm  idx="4"  idxOne="3"  idxTwo="17"  coef="-1.9579"/><qTerm  idx="4"  idxOne="4"  idxTwo="13"  coef=".9313"/><qTerm  idx="4"  idxOne="4"  idxTwo="15"  coef="-.5478"/><qTerm  idx="4"  idxOne="4"  idxTwo="16"  coef=".7453"/><qTerm  idx="4"  idxOne="4"  idxTwo="17"  coef=".364"/><qTerm  idx="4"  idxOne="4"  idxTwo="19"  coef="-.2287"/><qTerm  idx="4"  idxOne="5"  idxTwo="6"  coef="-1.8944"/><qTerm  idx="4"  idxOne="5"  idxTwo="8"  coef="1.1382"/><qTerm  idx="4"  idxOne="5"  idxTwo="11"  coef="-1.1088"/><qTerm  idx="4"  idxOne="5"  idxTwo="14"  coef="-1.688"/><qTerm  idx="4"  idxOne="6"  idxTwo="6"  coef=".4979"/><qTerm  idx="4"  idxOne="6"  idxTwo="8"  coef="-1.3585"/><qTerm  idx="4"  idxOne="6"  idxTwo="16"  coef="1.2144"/><qTerm  idx="4"  idxOne="6"  idxTwo="18"  coef="-.2148"/><qTerm  idx="4"  idxOne="7"  idxTwo="10"  coef="-.6178"/><qTerm  idx="4"  idxOne="7"  idxTwo="14"  coef=".8543"/><qTerm  idx="4"  idxOne="7"  idxTwo="19"  coef="-1.9171"/><qTerm  idx="4"  idxOne="8"  idxTwo="8"  coef=".5444"/><qTerm  idx="4"  idxOne="8"  idxTwo="9"  coef="-1.7428"/><qTerm  idx="4"  idxOne="8"  idxTwo="12"  coef="-.8886"/><qTerm  idx="4"  idxOne="8"  idxTwo="13"  coef="1.6811"/><qTerm  idx="4"  idxOne="9"  idxTwo="13"  coef=".7652"/><qTerm  idx="4"  idxOne="9"  idxTwo="14"  coef="-.1809"/><qTerm  idx="4"  idxOne="9"  idxTwo="15"  coef="-1.2273"/><qTerm  idx="4"  idxOne="9"  idxTwo="16"  coef=".3646"/><qTerm  idx="4"  idxOne="9"  idxTwo="19"  coef=".7473"/><qTerm  idx="4"  idxOne="10"  idxTwo="13"  coef=".8225"/><qTerm  idx="4"  idxOne="10"  idxTwo="17"  coef="-.6609"/><qTerm  idx="4"  idxOne="11"  idxTwo="11"  coef="-.2398"/><qTerm  idx="4"  idxOne="11"  idxTwo="13"  coef=".1329"/><qTerm  idx="4"  idxOne="11"  idxTwo="17"  coef="-1.1569"/><qTerm  idx="4"  idxOne="12"  idxTwo="15"  coef="-.126"/><qTerm  idx="4"  idxOne="13"  idxTwo="16"  coef="-1.3535"/><qTerm  idx="4"  idxOne="14"  idxTwo="18"  coef=".2523"/><qTerm  idx="4"  idxOne="15"  idxTwo="16"  coef="-1.6622"/><qTerm  idx="4"  idxOne="16"  idxTwo="16"  coef="1.6082"/><qTerm  idx="4"  idxOne="16"  idxTwo="17"  coef="-1.3591"/><qTerm  idx="5"  idxOne="0"  idxTwo="3"  coef="-.84"/><qTerm  idx="5"  idxOne="0"  idxTwo="11"  coef=".7813"/><qTerm  idx="5"  idxOne="0"  idxTwo="12"  coef="-1.8967"/><qTerm  idx="5"  idxOne="0"  idxTwo="14"  coef="-1.9979"/><qTerm  idx="5"  idxOne="0"  idxTwo="18"  coef="-1.906"/><qTerm  idx="5"  idxOne="1"  idxTwo="1"  coef="-1.4414"/><qTerm  idx="5"  idxOne="1"  idxTwo="6"  coef="-.1565"/><qTerm  idx="5"  idxOne="1"  idxTwo="7"  coef="1.7367"/><qTerm  idx="5"  idxOne="1"  idxTwo="8"  coef=".9659"/><qTerm  idx="5"  idxOne="1"  idxTwo="14"  coef="-1.1487"/><qTerm  idx="5"  idxOne="1"  idxTwo="15"  coef="1.9593"/><qTerm  idx="5"  idxOne="1"  idxTwo="16"  coef=".9313"/><qTerm  idx="5"  idxOne="2"  idxTwo="4"  coef="1.7599"/><qTerm  idx="5"  idxOne="2"  idxTwo="5"  coef=".2285"/><qTerm  idx="5"  idxOne="2"  idxTwo="8"  coef="-1.9001"/><qTerm  idx="5"  idxOne="2"  idxTwo="12"  coef="1.3709"/><qTerm  idx="5"  idxOne="2"  idxTwo="13"  coef="-.8159"/><qTerm  idx="5"  idxOne="2"  idxTwo="16"  coef="1.9364"/><qTerm  idx="5"  idxOne="2"  idxTwo="18"  coef="-.2756"/><qTerm  idx="5"  idxOne="2"  idxTwo="19"  coef="-.7318"/><qTerm  idx="5"  idxOne="3"  idxTwo="4"  coef="-1.0097"/><qTerm  idx="5"  idxOne="3"  idxTwo="5"  coef=".2524"/><qTerm  idx="5"  idxOne="3"  idxTwo="9"  coef="-.7494"/><qTerm  idx="5"  idxOne="3"  idxTwo="18"  coef="1.8839"/><qTerm  idx="5"  idxOne="4"  idxTwo="6"  coef="-1.5057"/><qTerm  idx="5"  idxOne="4"  idxTwo="9"  coef="1.8791"/><qTerm  idx="5"  idxOne="4"  idxTwo="17"  coef="-1.4516"/><qTerm  idx="5"  idxOne="5"  idxTwo="11"  coef="1.0591"/><qTerm  idx="5"  idxOne="5"  idxTwo="13"  coef="-.6033"/><qTerm  idx="5"  idxOne="5"  idxTwo="14"  coef="1.0298"/><qTerm  idx="5"  idxOne="5"  idxTwo="15"  coef=".3139"/><qTerm  idx="5"  idxOne="6"  idxTwo="8"  coef=".5093"/><qTerm  idx="5"  idxOne="7"  idxTwo="8"  coef="-1.3662"/><qTerm  idx="5"  idxOne="7"  idxTwo="11"  coef="-.3761"/><qTerm  idx="5"  idxOne="7"  idxTwo="12"  coef="-.5563"/><qTerm  idx="5"  idxOne="7"  idxTwo="16"  coef=".6411"/><qTerm  idx="5"  idxOne="8"  idxTwo="10"  coef=".2614"/><qTerm  idx="5"  idxOne="8"  idxTwo="15"  coef="1.6337"/><qTerm  idx="5"  idxOne="8"  idxTwo="16"  coef=".4517"/><qTerm  idx="5"  idxOne="9"  idxTwo="10"  coef="-.5346"/><qTerm  idx="5"  idxOne="9"  idxTwo="12"  coef=".8756"/><qTerm  idx="5"  idxOne="9"  idxTwo="13"  coef=".9974"/><qTerm  idx="5"  idxOne="10"  idxTwo="11"  coef="-.9248"/><qTerm  idx="5"  idxOne="10"  idxTwo="15"  coef="1.6062"/><qTerm  idx="5"  idxOne="11"  idxTwo="12"  coef="1.5195"/><qTerm  idx="5"  idxOne="11"  idxTwo="17"  coef=".1748"/><qTerm  idx="5"  idxOne="12"  idxTwo="13"  coef="-1.895"/><qTerm  idx="5"  idxOne="13"  idxTwo="13"  coef="-.5508"/><qTerm  idx="5"  idxOne="13"  idxTwo="18"  coef="1.4429"/><qTerm  idx="5"  idxOne="14"  idxTwo="15"  coef="1.6439"/><qTerm  idx="5"  idxOne="14"  idxTwo="16"  coef="1.2038"/><qTerm  idx="5"  idxOne="15"  idxTwo="15"  coef="1.3395"/><qTerm  idx="6"  idxOne="0"  idxTwo="1"  coef="-1.8108"/><qTerm  idx="6"  idxOne="0"  idxTwo="4"  coef=".1146"/><qTerm  idx="6"  idxOne="0"  idxTwo="14"  coef="-1.5053"/><qTerm  idx="6"  idxOne="0"  idxTwo="16"  coef="1.5306"/><qTerm  idx="6"  idxOne="1"  idxTwo="5"  coef="-.2207"/><qTerm  idx="6"  idxOne="1"  idxTwo="6"  coef="-.5767"/><qTerm  idx="6"  idxOne="1"  idxTwo="7"  coef="-.9446"/><qTerm  idx="6"  idxOne="1"  idxTwo="8"  coef="-1.145"/><qTerm  idx="6"  idxOne="1"  idxTwo="15"  coef="3.63e-2"/><qTerm  idx="6"  idxOne="1"  idxTwo="17"  coef="1.261"/><qTerm  idx="6"  idxOne="2"  idxTwo="2"  coef="-1.5537"/><qTerm  idx="6"  idxOne="2"  idxTwo="4"  coef="-1.9618"/><qTerm  idx="6"  idxOne="2"  idxTwo="8"  coef="-.5937"/><qTerm  idx="6"  idxOne="2"  idxTwo="13"  coef=".231"/><qTerm  idx="6"  idxOne="2"  idxTwo="14"  coef=".4838"/><qTerm  idx="6"  idxOne="2"  idxTwo="15"  coef=".6208"/><qTerm  idx="6"  idxOne="3"  idxTwo="8"  coef="1.5e-2"/><qTerm  idx="6"  idxOne="3"  idxTwo="10"  coef="1.0638"/><qTerm  idx="6"  idxOne="3"  idxTwo="12"  coef="-1.9985"/><qTerm  idx="6"  idxOne="3"  idxTwo="14"  coef="-1.0894"/><qTerm  idx="6"  idxOne="3"  idxTwo="16"  coef=".6967"/><qTerm  idx="6"  idxOne="3"  idxTwo="17"  coef="1.2317"/><qTerm  idx="6"  idxOne="3"  idxTwo="18"  coef="-1.6699"/><qTerm  idx="6"  idxOne="4"  idxTwo="5"  coef="-.2997"/><qTerm  idx="6"  idxOne="4"  idxTwo="10"  coef="-1.0458"/><qTerm  idx="6"  idxOne="4"  idxTwo="13"  coef="-.1982"/><qTerm  idx="6"  idxOne="4"  idxTwo="16"  coef=".9279"/><qTerm  idx="6"  idxOne="4"  idxTwo="18"  coef="-2"/><qTerm  idx="6"  idxOne="4"  idxTwo="19"  coef="-1.4341"/><qTerm  idx="6"  idxOne="5"  idxTwo="11"  coef=".9627"/><qTerm  idx="6"  idxOne="5"  idxTwo="12"  coef="-.4867"/><qTerm  idx="6"  idxOne="6"  idxTwo="10"  coef="1.1463"/><qTerm  idx="6"  idxOne="6"  idxTwo="17"  coef="-1.2865"/><qTerm  idx="6"  idxOne="7"  idxTwo="7"  coef="-.6129"/><qTerm  idx="6"  idxOne="7"  idxTwo="9"  coef="-1.1016"/><qTerm  idx="6"  idxOne="7"  idxTwo="11"  coef="1.5169"/><qTerm  idx="6"  idxOne="8"  idxTwo="10"  coef="1.8173"/><qTerm  idx="6"  idxOne="8"  idxTwo="15"  coef="1.6528"/><qTerm  idx="6"  idxOne="9"  idxTwo="11"  coef="-.8085"/><qTerm  idx="6"  idxOne="9"  idxTwo="12"  coef="-.8258"/><qTerm  idx="6"  idxOne="9"  idxTwo="14"  coef="-1.9625"/><qTerm  idx="6"  idxOne="9"  idxTwo="17"  coef="1.2554"/><qTerm  idx="6"  idxOne="10"  idxTwo="13"  coef="1.0973"/><qTerm  idx="6"  idxOne="11"  idxTwo="12"  coef="-1.8296"/><qTerm  idx="6"  idxOne="11"  idxTwo="15"  coef=".864"/><qTerm  idx="6"  idxOne="12"  idxTwo="14"  coef=".3766"/><qTerm  idx="6"  idxOne="13"  idxTwo="15"  coef="7.52e-2"/><qTerm  idx="6"  idxOne="13"  idxTwo="16"  coef=".2759"/><qTerm  idx="6"  idxOne="14"  idxTwo="16"  coef="-.7043"/><qTerm  idx="6"  idxOne="15"  idxTwo="16"  coef="-.3181"/><qTerm  idx="6"  idxOne="16"  idxTwo="18"  coef="-.1297"/><qTerm  idx="6"  idxOne="17"  idxTwo="17"  coef=".4229"/><qTerm  idx="7"  idxOne="0"  idxTwo="13"  coef="-1.8084"/><qTerm  idx="7"  idxOne="0"  idxTwo="19"  coef="1.4906"/><qTerm  idx="7"  idxOne="1"  idxTwo="2"  coef="-.9733"/><qTerm  idx="7"  idxOne="1"  idxTwo="4"  coef="-1.9755"/><qTerm  idx="7"  idxOne="1"  idxTwo="7"  coef="-1.681"/><qTerm  idx="7"  idxOne="1"  idxTwo="9"  coef="1.7002"/><qTerm  idx="7"  idxOne="1"  idxTwo="13"  coef="-.1311"/><qTerm  idx="7"  idxOne="1"  idxTwo="15"  coef="-1.9654"/><qTerm  idx="7"  idxOne="2"  idxTwo="6"  coef="-1.2799"/><qTerm  idx="7"  idxOne="2"  idxTwo="9"  coef="1.9302"/><qTerm  idx="7"  idxOne="2"  idxTwo="10"  coef="-.6298"/><qTerm  idx="7"  idxOne="2"  idxTwo="12"  coef="-.9704"/><qTerm  idx="7"  idxOne="2"  idxTwo="14"  coef="1.4851"/><qTerm  idx="7"  idxOne="2"  idxTwo="15"  coef="-.4728"/><qTerm  idx="7"  idxOne="2"  idxTwo="16"  coef=".5562"/><qTerm  idx="7"  idxOne="3"  idxTwo="8"  coef="-.5689"/><qTerm  idx="7"  idxOne="3"  idxTwo="16"  coef=".2957"/><qTerm  idx="7"  idxOne="4"  idxTwo="5"  coef=".5459"/><qTerm  idx="7"  idxOne="4"  idxTwo="8"  coef="1.4391"/><qTerm  idx="7"  idxOne="4"  idxTwo="10"  coef="-.1062"/><qTerm  idx="7"  idxOne="4"  idxTwo="16"  coef="-.6927"/><qTerm  idx="7"  idxOne="5"  idxTwo="7"  coef="1.6772"/><qTerm  idx="7"  idxOne="5"  idxTwo="8"  coef="-.405"/><qTerm  idx="7"  idxOne="5"  idxTwo="11"  coef=".7836"/><qTerm  idx="7"  idxOne="5"  idxTwo="16"  coef="-1.5637"/><qTerm  idx="7"  idxOne="5"  idxTwo="18"  coef="-.8654"/><qTerm  idx="7"  idxOne="6"  idxTwo="13"  coef="1.9382"/><qTerm  idx="7"  idxOne="6"  idxTwo="16"  coef="1.5895"/><qTerm  idx="7"  idxOne="6"  idxTwo="18"  coef="1.8938"/><qTerm  idx="7"  idxOne="7"  idxTwo="8"  coef="1.078"/><qTerm  idx="7"  idxOne="7"  idxTwo="10"  coef="1.0751"/><qTerm  idx="7"  idxOne="7"  idxTwo="11"  coef="1.7914"/><qTerm  idx="7"  idxOne="7"  idxTwo="12"  coef=".8874"/><qTerm  idx="7"  idxOne="7"  idxTwo="15"  coef=".4766"/><qTerm  idx="7"  idxOne="7"  idxTwo="18"  coef=".496"/><qTerm  idx="7"  idxOne="8"  idxTwo="9"  coef="1.3375"/><qTerm  idx="7"  idxOne="8"  idxTwo="10"  coef="1.5127"/><qTerm  idx="7"  idxOne="8"  idxTwo="15"  coef="-.3779"/><qTerm  idx="7"  idxOne="8"  idxTwo="19"  coef=".201"/><qTerm  idx="7"  idxOne="9"  idxTwo="9"  coef="-.3924"/><qTerm  idx="7"  idxOne="9"  idxTwo="13"  coef="1.8e-3"/><qTerm  idx="7"  idxOne="9"  idxTwo="14"  coef="1.345"/><qTerm  idx="7"  idxOne="9"  idxTwo="15"  coef="1.5986"/><qTerm  idx="7"  idxOne="9"  idxTwo="17"  coef="-1.0807"/><qTerm  idx="7"  idxOne="10"  idxTwo="16"  coef=".789"/><qTerm  idx="7"  idxOne="11"  idxTwo="13"  coef="-1.2876"/><qTerm  idx="7"  idxOne="11"  idxTwo="18"  coef="1.6341"/><qTerm  idx="7"  idxOne="12"  idxTwo="12"  coef="1.23"/><qTerm  idx="7"  idxOne="13"  idxTwo="17"  coef="-1.3244"/><qTerm  idx="7"  idxOne="13"  idxTwo="18"  coef="1.9184"/><qTerm  idx="7"  idxOne="17"  idxTwo="18"  coef=".8727"/><qTerm  idx="7"  idxOne="18"  idxTwo="19"  coef="-1.8983"/><qTerm  idx="8"  idxOne="0"  idxTwo="1"  coef="-.835"/><qTerm  idx="8"  idxOne="0"  idxTwo="2"  coef="1.7348"/><qTerm  idx="8"  idxOne="0"  idxTwo="12"  coef="-1.9767"/><qTerm  idx="8"  idxOne="0"  idxTwo="16"  coef="-.2223"/><qTerm  idx="8"  idxOne="1"  idxTwo="1"  coef="-.2135"/><qTerm  idx="8"  idxOne="1"  idxTwo="2"  coef="1.4468"/><qTerm  idx="8"  idxOne="1"  idxTwo="3"  coef="1.1704"/><qTerm  idx="8"  idxOne="1"  idxTwo="12"  coef="-1.1201"/><qTerm  idx="8"  idxOne="1"  idxTwo="15"  coef="-1.4037"/><qTerm  idx="8"  idxOne="1"  idxTwo="17"  coef="-1.3651"/><qTerm  idx="8"  idxOne="2"  idxTwo="10"  coef="1.1956"/><qTerm  idx="8"  idxOne="2"  idxTwo="12"  coef=".8163"/><qTerm  idx="8"  idxOne="2"  idxTwo="14"  coef=".1122"/><qTerm  idx="8"  idxOne="2"  idxTwo="16"  coef=".8375"/><qTerm  idx="8"  idxOne="3"  idxTwo="7"  coef="-1.7036"/><qTerm  idx="8"  idxOne="3"  idxTwo="10"  coef="1.9497"/><qTerm  idx="8"  idxOne="3"  idxTwo="12"  coef="-.9043"/><qTerm  idx="8"  idxOne="3"  idxTwo="15"  coef="-1.0215"/><qTerm  idx="8"  idxOne="4"  idxTwo="4"  coef="-1.1239"/><qTerm  idx="8"  idxOne="4"  idxTwo="7"  coef="-.7713"/><qTerm  idx="8"  idxOne="4"  idxTwo="17"  coef=".8902"/><qTerm  idx="8"  idxOne="4"  idxTwo="19"  coef="-1.6611"/><qTerm  idx="8"  idxOne="5"  idxTwo="6"  coef="-.3108"/><qTerm  idx="8"  idxOne="5"  idxTwo="7"  coef=".8341"/><qTerm  idx="8"  idxOne="5"  idxTwo="8"  coef="-1.2866"/><qTerm  idx="8"  idxOne="5"  idxTwo="12"  coef="-1.033"/><qTerm  idx="8"  idxOne="5"  idxTwo="15"  coef="-.2597"/><qTerm  idx="8"  idxOne="5"  idxTwo="17"  coef=".2686"/><qTerm  idx="8"  idxOne="6"  idxTwo="11"  coef="-9.59e-2"/><qTerm  idx="8"  idxOne="6"  idxTwo="12"  coef="-1.5075"/><qTerm  idx="8"  idxOne="6"  idxTwo="13"  coef=".564"/><qTerm  idx="8"  idxOne="6"  idxTwo="14"  coef="1.5416"/><qTerm  idx="8"  idxOne="6"  idxTwo="16"  coef="-.7894"/><qTerm  idx="8"  idxOne="7"  idxTwo="8"  coef="-1.8958"/><qTerm  idx="8"  idxOne="7"  idxTwo="10"  coef="1.2289"/><qTerm  idx="8"  idxOne="7"  idxTwo="15"  coef="-.5054"/><qTerm  idx="8"  idxOne="7"  idxTwo="16"  coef="-1.0081"/><qTerm  idx="8"  idxOne="8"  idxTwo="8"  coef="-1.7834"/><qTerm  idx="8"  idxOne="8"  idxTwo="14"  coef="1.7478"/><qTerm  idx="8"  idxOne="8"  idxTwo="16"  coef="-.1069"/><qTerm  idx="8"  idxOne="8"  idxTwo="19"  coef="-9.19e-2"/><qTerm  idx="8"  idxOne="9"  idxTwo="9"  coef="1.6135"/><qTerm  idx="8"  idxOne="9"  idxTwo="11"  coef=".9309"/><qTerm  idx="8"  idxOne="9"  idxTwo="13"  coef="-1.0114"/><qTerm  idx="8"  idxOne="10"  idxTwo="19"  coef=".7814"/><qTerm  idx="8"  idxOne="11"  idxTwo="13"  coef=".8067"/><qTerm  idx="8"  idxOne="11"  idxTwo="14"  coef=".4537"/><qTerm  idx="8"  idxOne="11"  idxTwo="15"  coef="-.4738"/><qTerm  idx="8"  idxOne="12"  idxTwo="13"  coef="1.2583"/><qTerm  idx="8"  idxOne="12"  idxTwo="14"  coef="-.4467"/><qTerm  idx="8"  idxOne="12"  idxTwo="17"  coef="-1.2204"/><qTerm  idx="8"  idxOne="14"  idxTwo="18"  coef="-2.82e-2"/><qTerm  idx="9"  idxOne="0"  idxTwo="10"  coef="7.82e-2"/><qTerm  idx="9"  idxOne="0"  idxTwo="11"  coef="1.8758"/><qTerm  idx="9"  idxOne="0"  idxTwo="16"  coef=".5526"/><qTerm  idx="9"  idxOne="0"  idxTwo="19"  coef="-1.8903"/><qTerm  idx="9"  idxOne="1"  idxTwo="5"  coef="1.0469"/><qTerm  idx="9"  idxOne="1"  idxTwo="6"  coef=".4846"/><qTerm  idx="9"  idxOne="1"  idxTwo="10"  coef="-1.9506"/><qTerm  idx="9"  idxOne="2"  idxTwo="10"  coef="-1.0351"/><qTerm  idx="9"  idxOne="2"  idxTwo="12"  coef="-.8645"/><qTerm  idx="9"  idxOne="2"  idxTwo="13"  coef=".9636"/><qTerm  idx="9"  idxOne="2"  idxTwo="14"  coef="-.5876"/><qTerm  idx="9"  idxOne="3"  idxTwo="4"  coef="-.6403"/><qTerm  idx="9"  idxOne="3"  idxTwo="5"  coef="-.627"/><qTerm  idx="9"  idxOne="3"  idxTwo="6"  coef="-1.7743"/><qTerm  idx="9"  idxOne="3"  idxTwo="11"  coef=".4287"/><qTerm  idx="9"  idxOne="4"  idxTwo="4"  coef="-.74"/><qTerm  idx="9"  idxOne="4"  idxTwo="5"  coef="-.7984"/><qTerm  idx="9"  idxOne="4"  idxTwo="9"  coef="1.999"/><qTerm  idx="9"  idxOne="4"  idxTwo="11"  coef="-1.7778"/><qTerm  idx="9"  idxOne="4"  idxTwo="12"  coef="-.8717"/><qTerm  idx="9"  idxOne="4"  idxTwo="13"  coef="1.7707"/><qTerm  idx="9"  idxOne="4"  idxTwo="14"  coef=".4385"/><qTerm  idx="9"  idxOne="4"  idxTwo="17"  coef="-.2102"/><qTerm  idx="9"  idxOne="5"  idxTwo="9"  coef="-1.8359"/><qTerm  idx="9"  idxOne="5"  idxTwo="12"  coef="-1.2688"/><qTerm  idx="9"  idxOne="6"  idxTwo="8"  coef=".8429"/><qTerm  idx="9"  idxOne="6"  idxTwo="14"  coef="-1.1804"/><qTerm  idx="9"  idxOne="6"  idxTwo="17"  coef="-.6249"/><qTerm  idx="9"  idxOne="7"  idxTwo="8"  coef=".5179"/><qTerm  idx="9"  idxOne="7"  idxTwo="17"  coef="-.1552"/><qTerm  idx="9"  idxOne="8"  idxTwo="11"  coef="-4.93e-2"/><qTerm  idx="9"  idxOne="8"  idxTwo="17"  coef="1.6816"/><qTerm  idx="9"  idxOne="9"  idxTwo="12"  coef="1.2486"/><qTerm  idx="9"  idxOne="9"  idxTwo="13"  coef="-.2609"/><qTerm  idx="9"  idxOne="9"  idxTwo="16"  coef="1.5375"/><qTerm  idx="9"  idxOne="9"  idxTwo="18"  coef="-.5813"/><qTerm  idx="9"  idxOne="10"  idxTwo="11"  coef=".2971"/><qTerm  idx="9"  idxOne="10"  idxTwo="15"  coef="-1.2993"/><qTerm  idx="9"  idxOne="11"  idxTwo="12"  coef="-1.1858"/><qTerm  idx="9"  idxOne="11"  idxTwo="13"  coef="-.2817"/><qTerm  idx="9"  idxOne="11"  idxTwo="15"  coef="1.3576"/><qTerm  idx="9"  idxOne="11"  idxTwo="17"  coef=".1203"/><qTerm  idx="9"  idxOne="11"  idxTwo="19"  coef=".4393"/><qTerm  idx="9"  idxOne="12"  idxTwo="12"  coef="-.8855"/><qTerm  idx="9"  idxOne="13"  idxTwo="15"  coef="-1.9686"/><qTerm  idx="9"  idxOne="13"  idxTwo="16"  coef=".9508"/><qTerm  idx="9"  idxOne="14"  idxTwo="15"  coef="1.8919"/><qTerm  idx="9"  idxOne="15"  idxTwo="17"  coef="-1.3906"/><qTerm  idx="9"  idxOne="15"  idxTwo="18"  coef="-.8309"/><qTerm  idx="9"  idxOne="16"  idxTwo="18"  coef=".5022"/><qTerm  idx="9"  idxOne="16"  idxTwo="19"  coef="-.9228"/><qTerm  idx="9"  idxOne="17"  idxTwo="18"  coef=".7596"/></quadraticCoefficients></instanceData></osil>
